B4 As4
1.0
   4.8192539999999999    0.0000000000000000    0.0000000000000003
   0.0000000000000008    4.8192539999999999    0.0000000000000003
   0.0000000000000000    0.0000000000000000    4.8192539999999999
B As
4 4
direct
   0.2500000000000000    0.2500000000000000    0.2500000000000000 B
   0.2500000000000000    0.7500000000000000    0.7500000000000000 B
   0.7500000000000000    0.2500000000000000    0.7500000000000000 B
   0.7500000000000000    0.7500000000000000    0.2500000000000000 B
   0.0000000000000000    0.0000000000000000    0.0000000000000000 As
   0.0000000000000000    0.5000000000000000    0.5000000000000000 As
   0.5000000000000000    0.0000000000000000    0.5000000000000000 As
   0.5000000000000000    0.5000000000000000    0.0000000000000000 As
