Si4 C4
1.0
   1.5378470748366562   -2.6636292678882660    0.0000000000000000
   1.5378470748366562    2.6636292678882660    0.0000000000000000
   0.0000000000000000    0.0000000000000000   10.0706464800000006
Si C
4 4
direct
   0.6666666666666666    0.3333333333333333    0.9378419800000000 Si4+
   0.3333333333333333    0.6666666666666666    0.4378419800000000 Si4+
   0.0000000000000000    0.0000000000000000    0.6878943799999999 Si4+
   0.0000000000000000    0.0000000000000000    0.1878943799999999 Si4+
   0.6666666666666666    0.3333333333333333    0.7498025899999999 C4-
   0.3333333333333333    0.6666666666666666    0.2498025899999998 C4-
   0.0000000000000000    0.0000000000000000    0.5004600499999998 C4-
   0.0000000000000000    0.0000000000000000    0.0004600499999998 C4-
